db/data/123341792412473188252851013999105672427.z3.out
sat
-------------------
401.657816109
